c FILE: queen12_12.col
c Translated from Stanford GraphBase File: queen12_12.gb
c Stanford GraphBase ID: gunion(board(12,12,0,0,-1,0,0),board(12,12,0,0,-2,0,0),0,0)
p edge 144 5192
e 2 1
e 3 1
e 3 2
e 4 1
e 4 2
e 4 3
e 5 1
e 5 2
e 5 3
e 5 4
e 6 1
e 6 2
e 6 3
e 6 4
e 6 5
e 7 1
e 7 2
e 7 3
e 7 4
e 7 5
e 7 6
e 8 1
e 8 2
e 8 3
e 8 4
e 8 5
e 8 6
e 8 7
e 9 1
e 9 2
e 9 3
e 9 4
e 9 5
e 9 6
e 9 7
e 9 8
e 10 1
e 10 2
e 10 3
e 10 4
e 10 5
e 10 6
e 10 7
e 10 8
e 10 9
e 11 1
e 11 2
e 11 3
e 11 4
e 11 5
e 11 6
e 11 7
e 11 8
e 11 9
e 11 10
e 12 1
e 12 2
e 12 3
e 12 4
e 12 5
e 12 6
e 12 7
e 12 8
e 12 9
e 12 10
e 12 11
e 13 1
e 13 2
e 14 1
e 14 2
e 14 3
e 14 13
e 15 2
e 15 3
e 15 4
e 15 13
e 15 14
e 16 3
e 16 4
e 16 5
e 16 13
e 16 14
e 16 15
e 17 4
e 17 5
e 17 6
e 17 13
e 17 14
e 17 15
e 17 16
e 18 5
e 18 6
e 18 7
e 18 13
e 18 14
e 18 15
e 18 16
e 18 17
e 19 6
e 19 7
e 19 8
e 19 13
e 19 14
e 19 15
e 19 16
e 19 17
e 19 18
e 20 7
e 20 8
e 20 9
e 20 13
e 20 14
e 20 15
e 20 16
e 20 17
e 20 18
e 20 19
e 21 8
e 21 9
e 21 10
e 21 13
e 21 14
e 21 15
e 21 16
e 21 17
e 21 18
e 21 19
e 21 20
e 22 9
e 22 10
e 22 11
e 22 13
e 22 14
e 22 15
e 22 16
e 22 17
e 22 18
e 22 19
e 22 20
e 22 21
e 23 10
e 23 11
e 23 12
e 23 13
e 23 14
e 23 15
e 23 16
e 23 17
e 23 18
e 23 19
e 23 20
e 23 21
e 23 22
e 24 11
e 24 12
e 24 13
e 24 14
e 24 15
e 24 16
e 24 17
e 24 18
e 24 19
e 24 20
e 24 21
e 24 22
e 24 23
e 25 1
e 25 3
e 25 13
e 25 14
e 26 2
e 26 4
e 26 13
e 26 14
e 26 15
e 26 25
e 27 1
e 27 3
e 27 5
e 27 14
e 27 15
e 27 16
e 27 25
e 27 26
e 28 2
e 28 4
e 28 6
e 28 15
e 28 16
e 28 17
e 28 25
e 28 26
e 28 27
e 29 3
e 29 5
e 29 7
e 29 16
e 29 17
e 29 18
e 29 25
e 29 26
e 29 27
e 29 28
e 30 4
e 30 6
e 30 8
e 30 17
e 30 18
e 30 19
e 30 25
e 30 26
e 30 27
e 30 28
e 30 29
e 31 5
e 31 7
e 31 9
e 31 18
e 31 19
e 31 20
e 31 25
e 31 26
e 31 27
e 31 28
e 31 29
e 31 30
e 32 6
e 32 8
e 32 10
e 32 19
e 32 20
e 32 21
e 32 25
e 32 26
e 32 27
e 32 28
e 32 29
e 32 30
e 32 31
e 33 7
e 33 9
e 33 11
e 33 20
e 33 21
e 33 22
e 33 25
e 33 26
e 33 27
e 33 28
e 33 29
e 33 30
e 33 31
e 33 32
e 34 8
e 34 10
e 34 12
e 34 21
e 34 22
e 34 23
e 34 25
e 34 26
e 34 27
e 34 28
e 34 29
e 34 30
e 34 31
e 34 32
e 34 33
e 35 9
e 35 11
e 35 22
e 35 23
e 35 24
e 35 25
e 35 26
e 35 27
e 35 28
e 35 29
e 35 30
e 35 31
e 35 32
e 35 33
e 35 34
e 36 10
e 36 12
e 36 23
e 36 24
e 36 25
e 36 26
e 36 27
e 36 28
e 36 29
e 36 30
e 36 31
e 36 32
e 36 33
e 36 34
e 36 35
e 37 1
e 37 4
e 37 13
e 37 15
e 37 25
e 37 26
e 38 2
e 38 5
e 38 14
e 38 16
e 38 25
e 38 26
e 38 27
e 38 37
e 39 3
e 39 6
e 39 13
e 39 15
e 39 17
e 39 26
e 39 27
e 39 28
e 39 37
e 39 38
e 40 1
e 40 4
e 40 7
e 40 14
e 40 16
e 40 18
e 40 27
e 40 28
e 40 29
e 40 37
e 40 38
e 40 39
e 41 2
e 41 5
e 41 8
e 41 15
e 41 17
e 41 19
e 41 28
e 41 29
e 41 30
e 41 37
e 41 38
e 41 39
e 41 40
e 42 3
e 42 6
e 42 9
e 42 16
e 42 18
e 42 20
e 42 29
e 42 30
e 42 31
e 42 37
e 42 38
e 42 39
e 42 40
e 42 41
e 43 4
e 43 7
e 43 10
e 43 17
e 43 19
e 43 21
e 43 30
e 43 31
e 43 32
e 43 37
e 43 38
e 43 39
e 43 40
e 43 41
e 43 42
e 44 5
e 44 8
e 44 11
e 44 18
e 44 20
e 44 22
e 44 31
e 44 32
e 44 33
e 44 37
e 44 38
e 44 39
e 44 40
e 44 41
e 44 42
e 44 43
e 45 6
e 45 9
e 45 12
e 45 19
e 45 21
e 45 23
e 45 32
e 45 33
e 45 34
e 45 37
e 45 38
e 45 39
e 45 40
e 45 41
e 45 42
e 45 43
e 45 44
e 46 7
e 46 10
e 46 20
e 46 22
e 46 24
e 46 33
e 46 34
e 46 35
e 46 37
e 46 38
e 46 39
e 46 40
e 46 41
e 46 42
e 46 43
e 46 44
e 46 45
e 47 8
e 47 11
e 47 21
e 47 23
e 47 34
e 47 35
e 47 36
e 47 37
e 47 38
e 47 39
e 47 40
e 47 41
e 47 42
e 47 43
e 47 44
e 47 45
e 47 46
e 48 9
e 48 12
e 48 22
e 48 24
e 48 35
e 48 36
e 48 37
e 48 38
e 48 39
e 48 40
e 48 41
e 48 42
e 48 43
e 48 44
e 48 45
e 48 46
e 48 47
e 49 1
e 49 5
e 49 13
e 49 16
e 49 25
e 49 27
e 49 37
e 49 38
e 50 2
e 50 6
e 50 14
e 50 17
e 50 26
e 50 28
e 50 37
e 50 38
e 50 39
e 50 49
e 51 3
e 51 7
e 51 15
e 51 18
e 51 25
e 51 27
e 51 29
e 51 38
e 51 39
e 51 40
e 51 49
e 51 50
e 52 4
e 52 8
e 52 13
e 52 16
e 52 19
e 52 26
e 52 28
e 52 30
e 52 39
e 52 40
e 52 41
e 52 49
e 52 50
e 52 51
e 53 1
e 53 5
e 53 9
e 53 14
e 53 17
e 53 20
e 53 27
e 53 29
e 53 31
e 53 40
e 53 41
e 53 42
e 53 49
e 53 50
e 53 51
e 53 52
e 54 2
e 54 6
e 54 10
e 54 15
e 54 18
e 54 21
e 54 28
e 54 30
e 54 32
e 54 41
e 54 42
e 54 43
e 54 49
e 54 50
e 54 51
e 54 52
e 54 53
e 55 3
e 55 7
e 55 11
e 55 16
e 55 19
e 55 22
e 55 29
e 55 31
e 55 33
e 55 42
e 55 43
e 55 44
e 55 49
e 55 50
e 55 51
e 55 52
e 55 53
e 55 54
e 56 4
e 56 8
e 56 12
e 56 17
e 56 20
e 56 23
e 56 30
e 56 32
e 56 34
e 56 43
e 56 44
e 56 45
e 56 49
e 56 50
e 56 51
e 56 52
e 56 53
e 56 54
e 56 55
e 57 5
e 57 9
e 57 18
e 57 21
e 57 24
e 57 31
e 57 33
e 57 35
e 57 44
e 57 45
e 57 46
e 57 49
e 57 50
e 57 51
e 57 52
e 57 53
e 57 54
e 57 55
e 57 56
e 58 6
e 58 10
e 58 19
e 58 22
e 58 32
e 58 34
e 58 36
e 58 45
e 58 46
e 58 47
e 58 49
e 58 50
e 58 51
e 58 52
e 58 53
e 58 54
e 58 55
e 58 56
e 58 57
e 59 7
e 59 11
e 59 20
e 59 23
e 59 33
e 59 35
e 59 46
e 59 47
e 59 48
e 59 49
e 59 50
e 59 51
e 59 52
e 59 53
e 59 54
e 59 55
e 59 56
e 59 57
e 59 58
e 60 8
e 60 12
e 60 21
e 60 24
e 60 34
e 60 36
e 60 47
e 60 48
e 60 49
e 60 50
e 60 51
e 60 52
e 60 53
e 60 54
e 60 55
e 60 56
e 60 57
e 60 58
e 60 59
e 61 1
e 61 6
e 61 13
e 61 17
e 61 25
e 61 28
e 61 37
e 61 39
e 61 49
e 61 50
e 62 2
e 62 7
e 62 14
e 62 18
e 62 26
e 62 29
e 62 38
e 62 40
e 62 49
e 62 50
e 62 51
e 62 61
e 63 3
e 63 8
e 63 15
e 63 19
e 63 27
e 63 30
e 63 37
e 63 39
e 63 41
e 63 50
e 63 51
e 63 52
e 63 61
e 63 62
e 64 4
e 64 9
e 64 16
e 64 20
e 64 25
e 64 28
e 64 31
e 64 38
e 64 40
e 64 42
e 64 51
e 64 52
e 64 53
e 64 61
e 64 62
e 64 63
e 65 5
e 65 10
e 65 13
e 65 17
e 65 21
e 65 26
e 65 29
e 65 32
e 65 39
e 65 41
e 65 43
e 65 52
e 65 53
e 65 54
e 65 61
e 65 62
e 65 63
e 65 64
e 66 1
e 66 6
e 66 11
e 66 14
e 66 18
e 66 22
e 66 27
e 66 30
e 66 33
e 66 40
e 66 42
e 66 44
e 66 53
e 66 54
e 66 55
e 66 61
e 66 62
e 66 63
e 66 64
e 66 65
e 67 2
e 67 7
e 67 12
e 67 15
e 67 19
e 67 23
e 67 28
e 67 31
e 67 34
e 67 41
e 67 43
e 67 45
e 67 54
e 67 55
e 67 56
e 67 61
e 67 62
e 67 63
e 67 64
e 67 65
e 67 66
e 68 3
e 68 8
e 68 16
e 68 20
e 68 24
e 68 29
e 68 32
e 68 35
e 68 42
e 68 44
e 68 46
e 68 55
e 68 56
e 68 57
e 68 61
e 68 62
e 68 63
e 68 64
e 68 65
e 68 66
e 68 67
e 69 4
e 69 9
e 69 17
e 69 21
e 69 30
e 69 33
e 69 36
e 69 43
e 69 45
e 69 47
e 69 56
e 69 57
e 69 58
e 69 61
e 69 62
e 69 63
e 69 64
e 69 65
e 69 66
e 69 67
e 69 68
e 70 5
e 70 10
e 70 18
e 70 22
e 70 31
e 70 34
e 70 44
e 70 46
e 70 48
e 70 57
e 70 58
e 70 59
e 70 61
e 70 62
e 70 63
e 70 64
e 70 65
e 70 66
e 70 67
e 70 68
e 70 69
e 71 6
e 71 11
e 71 19
e 71 23
e 71 32
e 71 35
e 71 45
e 71 47
e 71 58
e 71 59
e 71 60
e 71 61
e 71 62
e 71 63
e 71 64
e 71 65
e 71 66
e 71 67
e 71 68
e 71 69
e 71 70
e 72 7
e 72 12
e 72 20
e 72 24
e 72 33
e 72 36
e 72 46
e 72 48
e 72 59
e 72 60
e 72 61
e 72 62
e 72 63
e 72 64
e 72 65
e 72 66
e 72 67
e 72 68
e 72 69
e 72 70
e 72 71
e 73 1
e 73 7
e 73 13
e 73 18
e 73 25
e 73 29
e 73 37
e 73 40
e 73 49
e 73 51
e 73 61
e 73 62
e 74 2
e 74 8
e 74 14
e 74 19
e 74 26
e 74 30
e 74 38
e 74 41
e 74 50
e 74 52
e 74 61
e 74 62
e 74 63
e 74 73
e 75 3
e 75 9
e 75 15
e 75 20
e 75 27
e 75 31
e 75 39
e 75 42
e 75 49
e 75 51
e 75 53
e 75 62
e 75 63
e 75 64
e 75 73
e 75 74
e 76 4
e 76 10
e 76 16
e 76 21
e 76 28
e 76 32
e 76 37
e 76 40
e 76 43
e 76 50
e 76 52
e 76 54
e 76 63
e 76 64
e 76 65
e 76 73
e 76 74
e 76 75
e 77 5
e 77 11
e 77 17
e 77 22
e 77 25
e 77 29
e 77 33
e 77 38
e 77 41
e 77 44
e 77 51
e 77 53
e 77 55
e 77 64
e 77 65
e 77 66
e 77 73
e 77 74
e 77 75
e 77 76
e 78 6
e 78 12
e 78 13
e 78 18
e 78 23
e 78 26
e 78 30
e 78 34
e 78 39
e 78 42
e 78 45
e 78 52
e 78 54
e 78 56
e 78 65
e 78 66
e 78 67
e 78 73
e 78 74
e 78 75
e 78 76
e 78 77
e 79 1
e 79 7
e 79 14
e 79 19
e 79 24
e 79 27
e 79 31
e 79 35
e 79 40
e 79 43
e 79 46
e 79 53
e 79 55
e 79 57
e 79 66
e 79 67
e 79 68
e 79 73
e 79 74
e 79 75
e 79 76
e 79 77
e 79 78
e 80 2
e 80 8
e 80 15
e 80 20
e 80 28
e 80 32
e 80 36
e 80 41
e 80 44
e 80 47
e 80 54
e 80 56
e 80 58
e 80 67
e 80 68
e 80 69
e 80 73
e 80 74
e 80 75
e 80 76
e 80 77
e 80 78
e 80 79
e 81 3
e 81 9
e 81 16
e 81 21
e 81 29
e 81 33
e 81 42
e 81 45
e 81 48
e 81 55
e 81 57
e 81 59
e 81 68
e 81 69
e 81 70
e 81 73
e 81 74
e 81 75
e 81 76
e 81 77
e 81 78
e 81 79
e 81 80
e 82 4
e 82 10
e 82 17
e 82 22
e 82 30
e 82 34
e 82 43
e 82 46
e 82 56
e 82 58
e 82 60
e 82 69
e 82 70
e 82 71
e 82 73
e 82 74
e 82 75
e 82 76
e 82 77
e 82 78
e 82 79
e 82 80
e 82 81
e 83 5
e 83 11
e 83 18
e 83 23
e 83 31
e 83 35
e 83 44
e 83 47
e 83 57
e 83 59
e 83 70
e 83 71
e 83 72
e 83 73
e 83 74
e 83 75
e 83 76
e 83 77
e 83 78
e 83 79
e 83 80
e 83 81
e 83 82
e 84 6
e 84 12
e 84 19
e 84 24
e 84 32
e 84 36
e 84 45
e 84 48
e 84 58
e 84 60
e 84 71
e 84 72
e 84 73
e 84 74
e 84 75
e 84 76
e 84 77
e 84 78
e 84 79
e 84 80
e 84 81
e 84 82
e 84 83
e 85 1
e 85 8
e 85 13
e 85 19
e 85 25
e 85 30
e 85 37
e 85 41
e 85 49
e 85 52
e 85 61
e 85 63
e 85 73
e 85 74
e 86 2
e 86 9
e 86 14
e 86 20
e 86 26
e 86 31
e 86 38
e 86 42
e 86 50
e 86 53
e 86 62
e 86 64
e 86 73
e 86 74
e 86 75
e 86 85
e 87 3
e 87 10
e 87 15
e 87 21
e 87 27
e 87 32
e 87 39
e 87 43
e 87 51
e 87 54
e 87 61
e 87 63
e 87 65
e 87 74
e 87 75
e 87 76
e 87 85
e 87 86
e 88 4
e 88 11
e 88 16
e 88 22
e 88 28
e 88 33
e 88 40
e 88 44
e 88 49
e 88 52
e 88 55
e 88 62
e 88 64
e 88 66
e 88 75
e 88 76
e 88 77
e 88 85
e 88 86
e 88 87
e 89 5
e 89 12
e 89 17
e 89 23
e 89 29
e 89 34
e 89 37
e 89 41
e 89 45
e 89 50
e 89 53
e 89 56
e 89 63
e 89 65
e 89 67
e 89 76
e 89 77
e 89 78
e 89 85
e 89 86
e 89 87
e 89 88
e 90 6
e 90 18
e 90 24
e 90 25
e 90 30
e 90 35
e 90 38
e 90 42
e 90 46
e 90 51
e 90 54
e 90 57
e 90 64
e 90 66
e 90 68
e 90 77
e 90 78
e 90 79
e 90 85
e 90 86
e 90 87
e 90 88
e 90 89
e 91 7
e 91 13
e 91 19
e 91 26
e 91 31
e 91 36
e 91 39
e 91 43
e 91 47
e 91 52
e 91 55
e 91 58
e 91 65
e 91 67
e 91 69
e 91 78
e 91 79
e 91 80
e 91 85
e 91 86
e 91 87
e 91 88
e 91 89
e 91 90
e 92 1
e 92 8
e 92 14
e 92 20
e 92 27
e 92 32
e 92 40
e 92 44
e 92 48
e 92 53
e 92 56
e 92 59
e 92 66
e 92 68
e 92 70
e 92 79
e 92 80
e 92 81
e 92 85
e 92 86
e 92 87
e 92 88
e 92 89
e 92 90
e 92 91
e 93 2
e 93 9
e 93 15
e 93 21
e 93 28
e 93 33
e 93 41
e 93 45
e 93 54
e 93 57
e 93 60
e 93 67
e 93 69
e 93 71
e 93 80
e 93 81
e 93 82
e 93 85
e 93 86
e 93 87
e 93 88
e 93 89
e 93 90
e 93 91
e 93 92
e 94 3
e 94 10
e 94 16
e 94 22
e 94 29
e 94 34
e 94 42
e 94 46
e 94 55
e 94 58
e 94 68
e 94 70
e 94 72
e 94 81
e 94 82
e 94 83
e 94 85
e 94 86
e 94 87
e 94 88
e 94 89
e 94 90
e 94 91
e 94 92
e 94 93
e 95 4
e 95 11
e 95 17
e 95 23
e 95 30
e 95 35
e 95 43
e 95 47
e 95 56
e 95 59
e 95 69
e 95 71
e 95 82
e 95 83
e 95 84
e 95 85
e 95 86
e 95 87
e 95 88
e 95 89
e 95 90
e 95 91
e 95 92
e 95 93
e 95 94
e 96 5
e 96 12
e 96 18
e 96 24
e 96 31
e 96 36
e 96 44
e 96 48
e 96 57
e 96 60
e 96 70
e 96 72
e 96 83
e 96 84
e 96 85
e 96 86
e 96 87
e 96 88
e 96 89
e 96 90
e 96 91
e 96 92
e 96 93
e 96 94
e 96 95
e 97 1
e 97 9
e 97 13
e 97 20
e 97 25
e 97 31
e 97 37
e 97 42
e 97 49
e 97 53
e 97 61
e 97 64
e 97 73
e 97 75
e 97 85
e 97 86
e 98 2
e 98 10
e 98 14
e 98 21
e 98 26
e 98 32
e 98 38
e 98 43
e 98 50
e 98 54
e 98 62
e 98 65
e 98 74
e 98 76
e 98 85
e 98 86
e 98 87
e 98 97
e 99 3
e 99 11
e 99 15
e 99 22
e 99 27
e 99 33
e 99 39
e 99 44
e 99 51
e 99 55
e 99 63
e 99 66
e 99 73
e 99 75
e 99 77
e 99 86
e 99 87
e 99 88
e 99 97
e 99 98
e 100 4
e 100 12
e 100 16
e 100 23
e 100 28
e 100 34
e 100 40
e 100 45
e 100 52
e 100 56
e 100 61
e 100 64
e 100 67
e 100 74
e 100 76
e 100 78
e 100 87
e 100 88
e 100 89
e 100 97
e 100 98
e 100 99
e 101 5
e 101 17
e 101 24
e 101 29
e 101 35
e 101 41
e 101 46
e 101 49
e 101 53
e 101 57
e 101 62
e 101 65
e 101 68
e 101 75
e 101 77
e 101 79
e 101 88
e 101 89
e 101 90
e 101 97
e 101 98
e 101 99
e 101 100
e 102 6
e 102 18
e 102 30
e 102 36
e 102 37
e 102 42
e 102 47
e 102 50
e 102 54
e 102 58
e 102 63
e 102 66
e 102 69
e 102 76
e 102 78
e 102 80
e 102 89
e 102 90
e 102 91
e 102 97
e 102 98
e 102 99
e 102 100
e 102 101
e 103 7
e 103 19
e 103 25
e 103 31
e 103 38
e 103 43
e 103 48
e 103 51
e 103 55
e 103 59
e 103 64
e 103 67
e 103 70
e 103 77
e 103 79
e 103 81
e 103 90
e 103 91
e 103 92
e 103 97
e 103 98
e 103 99
e 103 100
e 103 101
e 103 102
e 104 8
e 104 13
e 104 20
e 104 26
e 104 32
e 104 39
e 104 44
e 104 52
e 104 56
e 104 60
e 104 65
e 104 68
e 104 71
e 104 78
e 104 80
e 104 82
e 104 91
e 104 92
e 104 93
e 104 97
e 104 98
e 104 99
e 104 100
e 104 101
e 104 102
e 104 103
e 105 1
e 105 9
e 105 14
e 105 21
e 105 27
e 105 33
e 105 40
e 105 45
e 105 53
e 105 57
e 105 66
e 105 69
e 105 72
e 105 79
e 105 81
e 105 83
e 105 92
e 105 93
e 105 94
e 105 97
e 105 98
e 105 99
e 105 100
e 105 101
e 105 102
e 105 103
e 105 104
e 106 2
e 106 10
e 106 15
e 106 22
e 106 28
e 106 34
e 106 41
e 106 46
e 106 54
e 106 58
e 106 67
e 106 70
e 106 80
e 106 82
e 106 84
e 106 93
e 106 94
e 106 95
e 106 97
e 106 98
e 106 99
e 106 100
e 106 101
e 106 102
e 106 103
e 106 104
e 106 105
e 107 3
e 107 11
e 107 16
e 107 23
e 107 29
e 107 35
e 107 42
e 107 47
e 107 55
e 107 59
e 107 68
e 107 71
e 107 81
e 107 83
e 107 94
e 107 95
e 107 96
e 107 97
e 107 98
e 107 99
e 107 100
e 107 101
e 107 102
e 107 103
e 107 104
e 107 105
e 107 106
e 108 4
e 108 12
e 108 17
e 108 24
e 108 30
e 108 36
e 108 43
e 108 48
e 108 56
e 108 60
e 108 69
e 108 72
e 108 82
e 108 84
e 108 95
e 108 96
e 108 97
e 108 98
e 108 99
e 108 100
e 108 101
e 108 102
e 108 103
e 108 104
e 108 105
e 108 106
e 108 107
e 109 1
e 109 10
e 109 13
e 109 21
e 109 25
e 109 32
e 109 37
e 109 43
e 109 49
e 109 54
e 109 61
e 109 65
e 109 73
e 109 76
e 109 85
e 109 87
e 109 97
e 109 98
e 110 2
e 110 11
e 110 14
e 110 22
e 110 26
e 110 33
e 110 38
e 110 44
e 110 50
e 110 55
e 110 62
e 110 66
e 110 74
e 110 77
e 110 86
e 110 88
e 110 97
e 110 98
e 110 99
e 110 109
e 111 3
e 111 12
e 111 15
e 111 23
e 111 27
e 111 34
e 111 39
e 111 45
e 111 51
e 111 56
e 111 63
e 111 67
e 111 75
e 111 78
e 111 85
e 111 87
e 111 89
e 111 98
e 111 99
e 111 100
e 111 109
e 111 110
e 112 4
e 112 16
e 112 24
e 112 28
e 112 35
e 112 40
e 112 46
e 112 52
e 112 57
e 112 64
e 112 68
e 112 73
e 112 76
e 112 79
e 112 86
e 112 88
e 112 90
e 112 99
e 112 100
e 112 101
e 112 109
e 112 110
e 112 111
e 113 5
e 113 17
e 113 29
e 113 36
e 113 41
e 113 47
e 113 53
e 113 58
e 113 61
e 113 65
e 113 69
e 113 74
e 113 77
e 113 80
e 113 87
e 113 89
e 113 91
e 113 100
e 113 101
e 113 102
e 113 109
e 113 110
e 113 111
e 113 112
e 114 6
e 114 18
e 114 30
e 114 42
e 114 48
e 114 49
e 114 54
e 114 59
e 114 62
e 114 66
e 114 70
e 114 75
e 114 78
e 114 81
e 114 88
e 114 90
e 114 92
e 114 101
e 114 102
e 114 103
e 114 109
e 114 110
e 114 111
e 114 112
e 114 113
e 115 7
e 115 19
e 115 31
e 115 37
e 115 43
e 115 50
e 115 55
e 115 60
e 115 63
e 115 67
e 115 71
e 115 76
e 115 79
e 115 82
e 115 89
e 115 91
e 115 93
e 115 102
e 115 103
e 115 104
e 115 109
e 115 110
e 115 111
e 115 112
e 115 113
e 115 114
e 116 8
e 116 20
e 116 25
e 116 32
e 116 38
e 116 44
e 116 51
e 116 56
e 116 64
e 116 68
e 116 72
e 116 77
e 116 80
e 116 83
e 116 90
e 116 92
e 116 94
e 116 103
e 116 104
e 116 105
e 116 109
e 116 110
e 116 111
e 116 112
e 116 113
e 116 114
e 116 115
e 117 9
e 117 13
e 117 21
e 117 26
e 117 33
e 117 39
e 117 45
e 117 52
e 117 57
e 117 65
e 117 69
e 117 78
e 117 81
e 117 84
e 117 91
e 117 93
e 117 95
e 117 104
e 117 105
e 117 106
e 117 109
e 117 110
e 117 111
e 117 112
e 117 113
e 117 114
e 117 115
e 117 116
e 118 1
e 118 10
e 118 14
e 118 22
e 118 27
e 118 34
e 118 40
e 118 46
e 118 53
e 118 58
e 118 66
e 118 70
e 118 79
e 118 82
e 118 92
e 118 94
e 118 96
e 118 105
e 118 106
e 118 107
e 118 109
e 118 110
e 118 111
e 118 112
e 118 113
e 118 114
e 118 115
e 118 116
e 118 117
e 119 2
e 119 11
e 119 15
e 119 23
e 119 28
e 119 35
e 119 41
e 119 47
e 119 54
e 119 59
e 119 67
e 119 71
e 119 80
e 119 83
e 119 93
e 119 95
e 119 106
e 119 107
e 119 108
e 119 109
e 119 110
e 119 111
e 119 112
e 119 113
e 119 114
e 119 115
e 119 116
e 119 117
e 119 118
e 120 3
e 120 12
e 120 16
e 120 24
e 120 29
e 120 36
e 120 42
e 120 48
e 120 55
e 120 60
e 120 68
e 120 72
e 120 81
e 120 84
e 120 94
e 120 96
e 120 107
e 120 108
e 120 109
e 120 110
e 120 111
e 120 112
e 120 113
e 120 114
e 120 115
e 120 116
e 120 117
e 120 118
e 120 119
e 121 1
e 121 11
e 121 13
e 121 22
e 121 25
e 121 33
e 121 37
e 121 44
e 121 49
e 121 55
e 121 61
e 121 66
e 121 73
e 121 77
e 121 85
e 121 88
e 121 97
e 121 99
e 121 109
e 121 110
e 122 2
e 122 12
e 122 14
e 122 23
e 122 26
e 122 34
e 122 38
e 122 45
e 122 50
e 122 56
e 122 62
e 122 67
e 122 74
e 122 78
e 122 86
e 122 89
e 122 98
e 122 100
e 122 109
e 122 110
e 122 111
e 122 121
e 123 3
e 123 15
e 123 24
e 123 27
e 123 35
e 123 39
e 123 46
e 123 51
e 123 57
e 123 63
e 123 68
e 123 75
e 123 79
e 123 87
e 123 90
e 123 97
e 123 99
e 123 101
e 123 110
e 123 111
e 123 112
e 123 121
e 123 122
e 124 4
e 124 16
e 124 28
e 124 36
e 124 40
e 124 47
e 124 52
e 124 58
e 124 64
e 124 69
e 124 76
e 124 80
e 124 85
e 124 88
e 124 91
e 124 98
e 124 100
e 124 102
e 124 111
e 124 112
e 124 113
e 124 121
e 124 122
e 124 123
e 125 5
e 125 17
e 125 29
e 125 41
e 125 48
e 125 53
e 125 59
e 125 65
e 125 70
e 125 73
e 125 77
e 125 81
e 125 86
e 125 89
e 125 92
e 125 99
e 125 101
e 125 103
e 125 112
e 125 113
e 125 114
e 125 121
e 125 122
e 125 123
e 125 124
e 126 6
e 126 18
e 126 30
e 126 42
e 126 54
e 126 60
e 126 61
e 126 66
e 126 71
e 126 74
e 126 78
e 126 82
e 126 87
e 126 90
e 126 93
e 126 100
e 126 102
e 126 104
e 126 113
e 126 114
e 126 115
e 126 121
e 126 122
e 126 123
e 126 124
e 126 125
e 127 7
e 127 19
e 127 31
e 127 43
e 127 49
e 127 55
e 127 62
e 127 67
e 127 72
e 127 75
e 127 79
e 127 83
e 127 88
e 127 91
e 127 94
e 127 101
e 127 103
e 127 105
e 127 114
e 127 115
e 127 116
e 127 121
e 127 122
e 127 123
e 127 124
e 127 125
e 127 126
e 128 8
e 128 20
e 128 32
e 128 37
e 128 44
e 128 50
e 128 56
e 128 63
e 128 68
e 128 76
e 128 80
e 128 84
e 128 89
e 128 92
e 128 95
e 128 102
e 128 104
e 128 106
e 128 115
e 128 116
e 128 117
e 128 121
e 128 122
e 128 123
e 128 124
e 128 125
e 128 126
e 128 127
e 129 9
e 129 21
e 129 25
e 129 33
e 129 38
e 129 45
e 129 51
e 129 57
e 129 64
e 129 69
e 129 77
e 129 81
e 129 90
e 129 93
e 129 96
e 129 103
e 129 105
e 129 107
e 129 116
e 129 117
e 129 118
e 129 121
e 129 122
e 129 123
e 129 124
e 129 125
e 129 126
e 129 127
e 129 128
e 130 10
e 130 13
e 130 22
e 130 26
e 130 34
e 130 39
e 130 46
e 130 52
e 130 58
e 130 65
e 130 70
e 130 78
e 130 82
e 130 91
e 130 94
e 130 104
e 130 106
e 130 108
e 130 117
e 130 118
e 130 119
e 130 121
e 130 122
e 130 123
e 130 124
e 130 125
e 130 126
e 130 127
e 130 128
e 130 129
e 131 1
e 131 11
e 131 14
e 131 23
e 131 27
e 131 35
e 131 40
e 131 47
e 131 53
e 131 59
e 131 66
e 131 71
e 131 79
e 131 83
e 131 92
e 131 95
e 131 105
e 131 107
e 131 118
e 131 119
e 131 120
e 131 121
e 131 122
e 131 123
e 131 124
e 131 125
e 131 126
e 131 127
e 131 128
e 131 129
e 131 130
e 132 2
e 132 12
e 132 15
e 132 24
e 132 28
e 132 36
e 132 41
e 132 48
e 132 54
e 132 60
e 132 67
e 132 72
e 132 80
e 132 84
e 132 93
e 132 96
e 132 106
e 132 108
e 132 119
e 132 120
e 132 121
e 132 122
e 132 123
e 132 124
e 132 125
e 132 126
e 132 127
e 132 128
e 132 129
e 132 130
e 132 131
e 133 1
e 133 12
e 133 13
e 133 23
e 133 25
e 133 34
e 133 37
e 133 45
e 133 49
e 133 56
e 133 61
e 133 67
e 133 73
e 133 78
e 133 85
e 133 89
e 133 97
e 133 100
e 133 109
e 133 111
e 133 121
e 133 122
e 134 2
e 134 14
e 134 24
e 134 26
e 134 35
e 134 38
e 134 46
e 134 50
e 134 57
e 134 62
e 134 68
e 134 74
e 134 79
e 134 86
e 134 90
e 134 98
e 134 101
e 134 110
e 134 112
e 134 121
e 134 122
e 134 123
e 134 133
e 135 3
e 135 15
e 135 27
e 135 36
e 135 39
e 135 47
e 135 51
e 135 58
e 135 63
e 135 69
e 135 75
e 135 80
e 135 87
e 135 91
e 135 99
e 135 102
e 135 109
e 135 111
e 135 113
e 135 122
e 135 123
e 135 124
e 135 133
e 135 134
e 136 4
e 136 16
e 136 28
e 136 40
e 136 48
e 136 52
e 136 59
e 136 64
e 136 70
e 136 76
e 136 81
e 136 88
e 136 92
e 136 97
e 136 100
e 136 103
e 136 110
e 136 112
e 136 114
e 136 123
e 136 124
e 136 125
e 136 133
e 136 134
e 136 135
e 137 5
e 137 17
e 137 29
e 137 41
e 137 53
e 137 60
e 137 65
e 137 71
e 137 77
e 137 82
e 137 85
e 137 89
e 137 93
e 137 98
e 137 101
e 137 104
e 137 111
e 137 113
e 137 115
e 137 124
e 137 125
e 137 126
e 137 133
e 137 134
e 137 135
e 137 136
e 138 6
e 138 18
e 138 30
e 138 42
e 138 54
e 138 66
e 138 72
e 138 73
e 138 78
e 138 83
e 138 86
e 138 90
e 138 94
e 138 99
e 138 102
e 138 105
e 138 112
e 138 114
e 138 116
e 138 125
e 138 126
e 138 127
e 138 133
e 138 134
e 138 135
e 138 136
e 138 137
e 139 7
e 139 19
e 139 31
e 139 43
e 139 55
e 139 61
e 139 67
e 139 74
e 139 79
e 139 84
e 139 87
e 139 91
e 139 95
e 139 100
e 139 103
e 139 106
e 139 113
e 139 115
e 139 117
e 139 126
e 139 127
e 139 128
e 139 133
e 139 134
e 139 135
e 139 136
e 139 137
e 139 138
e 140 8
e 140 20
e 140 32
e 140 44
e 140 49
e 140 56
e 140 62
e 140 68
e 140 75
e 140 80
e 140 88
e 140 92
e 140 96
e 140 101
e 140 104
e 140 107
e 140 114
e 140 116
e 140 118
e 140 127
e 140 128
e 140 129
e 140 133
e 140 134
e 140 135
e 140 136
e 140 137
e 140 138
e 140 139
e 141 9
e 141 21
e 141 33
e 141 37
e 141 45
e 141 50
e 141 57
e 141 63
e 141 69
e 141 76
e 141 81
e 141 89
e 141 93
e 141 102
e 141 105
e 141 108
e 141 115
e 141 117
e 141 119
e 141 128
e 141 129
e 141 130
e 141 133
e 141 134
e 141 135
e 141 136
e 141 137
e 141 138
e 141 139
e 141 140
e 142 10
e 142 22
e 142 25
e 142 34
e 142 38
e 142 46
e 142 51
e 142 58
e 142 64
e 142 70
e 142 77
e 142 82
e 142 90
e 142 94
e 142 103
e 142 106
e 142 116
e 142 118
e 142 120
e 142 129
e 142 130
e 142 131
e 142 133
e 142 134
e 142 135
e 142 136
e 142 137
e 142 138
e 142 139
e 142 140
e 142 141
e 143 11
e 143 13
e 143 23
e 143 26
e 143 35
e 143 39
e 143 47
e 143 52
e 143 59
e 143 65
e 143 71
e 143 78
e 143 83
e 143 91
e 143 95
e 143 104
e 143 107
e 143 117
e 143 119
e 143 130
e 143 131
e 143 132
e 143 133
e 143 134
e 143 135
e 143 136
e 143 137
e 143 138
e 143 139
e 143 140
e 143 141
e 143 142
e 144 1
e 144 12
e 144 14
e 144 24
e 144 27
e 144 36
e 144 40
e 144 48
e 144 53
e 144 60
e 144 66
e 144 72
e 144 79
e 144 84
e 144 92
e 144 96
e 144 105
e 144 108
e 144 118
e 144 120
e 144 131
e 144 132
e 144 133
e 144 134
e 144 135
e 144 136
e 144 137
e 144 138
e 144 139
e 144 140
e 144 141
e 144 142
e 144 143
